(set-logic ALL)
(declare-const url String)
(declare-const allowed_hosts String)
(declare-const require_https Bool)
(assert (not (< (str.len url) 0)))
(assert (not (str.prefixof "///" url)))
(assert (not (< (str.len url) 0)))
(assert (> (+ 0 (str.indexof url ":" 0)) 0))
(assert (not (< (+ 0 (str.indexof url ":" 0)) 0)))
(assert (< 0 (str.len (str.substr url 0 (- (+ 0 (str.indexof url ":" 0)) 0)))))
(assert (< 1 (str.len (str.substr url 0 (- (+ 0 (str.indexof url ":" 0)) 0)))))
(assert (< 2 (str.len (str.substr url 0 (- (+ 0 (str.indexof url ":" 0)) 0)))))
(assert (< 3 (str.len (str.substr url 0 (- (+ 0 (str.indexof url ":" 0)) 0)))))
(assert (< 4 (str.len (str.substr url 0 (- (+ 0 (str.indexof url ":" 0)) 0)))))
(assert (< 5 (str.len (str.substr url 0 (- (+ 0 (str.indexof url ":" 0)) 0)))))
(assert (< 6 (str.len (str.substr url 0 (- (+ 0 (str.indexof url ":" 0)) 0)))))
(assert (< 7 (str.len (str.substr url 0 (- (+ 0 (str.indexof url ":" 0)) 0)))))
(assert (< 8 (str.len (str.substr url 0 (- (+ 0 (str.indexof url ":" 0)) 0)))))
(assert (< 9 (str.len (str.substr url 0 (- (+ 0 (str.indexof url ":" 0)) 0)))))
(assert (< 10 (str.len (str.substr url 0 (- (+ 0 (str.indexof url ":" 0)) 0)))))
(assert (< 11 (str.len (str.substr url 0 (- (+ 0 (str.indexof url ":" 0)) 0)))))
(assert (not (< 12 (str.len (str.substr url 0 (- (+ 0 (str.indexof url ":" 0)) 0))))))
(assert (not (< (+ 0 (str.indexof url ":" 0)) 0)))
(assert (not (< (+ (+ 0 (str.indexof url ":" 0)) 1) 0)))
(assert (not (< (str.len url) 0)))
(assert (not (= (str.substr url (+ (+ 0 (str.indexof url ":" 0)) 1) (- (str.len url) (+ (+ 0 (str.indexof url ":" 0)) 1))) "//")))
(assert (str.contains (str.substr url (+ (+ 0 (str.indexof url ":" 0)) 1) (- (str.len url) (+ (+ 0 (str.indexof url ":" 0)) 1))) "#"))
(assert (not (< (str.len (str.substr url (+ (+ 0 (str.indexof url ":" 0)) 1) (- (str.len url) (+ (+ 0 (str.indexof url ":" 0)) 1)))) 0)))
(assert (not (= (+ 0 (str.indexof (str.substr url (+ (+ 0 (str.indexof url ":" 0)) 1) (- (str.len url) (+ (+ 0 (str.indexof url ":" 0)) 1))) "#" 0)) (- 1))))
(assert (not (< (+ 0 (str.indexof (str.substr url (+ (+ 0 (str.indexof url ":" 0)) 1) (- (str.len url) (+ (+ 0 (str.indexof url ":" 0)) 1))) "#" 0)) 0)))
(assert (not (< (+ (+ 0 (str.indexof (str.substr url (+ (+ 0 (str.indexof url ":" 0)) 1) (- (str.len url) (+ (+ 0 (str.indexof url ":" 0)) 1))) "#" 0)) 1) 0)))
(assert (not (< (str.len (str.substr url (+ (+ 0 (str.indexof url ":" 0)) 1) (- (str.len url) (+ (+ 0 (str.indexof url ":" 0)) 1)))) 0)))
(assert (str.contains (str.substr (str.substr url (+ (+ 0 (str.indexof url ":" 0)) 1) (- (str.len url) (+ (+ 0 (str.indexof url ":" 0)) 1))) 0 (- (+ 0 (str.indexof (str.substr url (+ (+ 0 (str.indexof url ":" 0)) 1) (- (str.len url) (+ (+ 0 (str.indexof url ":" 0)) 1))) "#" 0)) 0)) "?"))
(assert (not (< (str.len (str.substr (str.substr url (+ (+ 0 (str.indexof url ":" 0)) 1) (- (str.len url) (+ (+ 0 (str.indexof url ":" 0)) 1))) 0 (- (+ 0 (str.indexof (str.substr url (+ (+ 0 (str.indexof url ":" 0)) 1) (- (str.len url) (+ (+ 0 (str.indexof url ":" 0)) 1))) "#" 0)) 0))) 0)))
(assert (not (= (+ 0 (str.indexof (str.substr (str.substr url (+ (+ 0 (str.indexof url ":" 0)) 1) (- (str.len url) (+ (+ 0 (str.indexof url ":" 0)) 1))) 0 (- (+ 0 (str.indexof (str.substr url (+ (+ 0 (str.indexof url ":" 0)) 1) (- (str.len url) (+ (+ 0 (str.indexof url ":" 0)) 1))) "#" 0)) 0)) "?" 0)) (- 1))))
(assert (not (< (+ 0 (str.indexof (str.substr (str.substr url (+ (+ 0 (str.indexof url ":" 0)) 1) (- (str.len url) (+ (+ 0 (str.indexof url ":" 0)) 1))) 0 (- (+ 0 (str.indexof (str.substr url (+ (+ 0 (str.indexof url ":" 0)) 1) (- (str.len url) (+ (+ 0 (str.indexof url ":" 0)) 1))) "#" 0)) 0)) "?" 0)) 0)))
(assert (< (+ (+ 0 (str.indexof (str.substr (str.substr url (+ (+ 0 (str.indexof url ":" 0)) 1) (- (str.len url) (+ (+ 0 (str.indexof url ":" 0)) 1))) 0 (- (+ 0 (str.indexof (str.substr url (+ (+ 0 (str.indexof url ":" 0)) 1) (- (str.len url) (+ (+ 0 (str.indexof url ":" 0)) 1))) "#" 0)) 0)) "?" 0)) 1) 0))
(check-sat)
(get-value (url))
(get-value (allowed_hosts))
(get-value (require_https))
